Route #1: 26 46 20 31 42 7 4
Route #2: 37 14 3 17 34 36
Route #3: 15 11 51 2 33
Route #4: 12 10 5 53 40 16 38 32
Route #5: 43 35 9 49 39 47
Route #6: 29 1 45 6
Route #7: 21 8 41 25
Route #8: 18 48 50 44 24 52 23
Route #9: 30 22 19 27 13 54 28
Cost 1074
Time 0.082456
